letting n_nurses=25
letting n_days=7
letting n_shift_types=4
letting max_covers=9
letting t_covers=35
letting covers=[1,0,0,0,9,2,0,0,0,1,8,0,0,0,0,0,7,1,0,0,1,1,0,0,2,0,2,0]
letting prefes=[2,1,1,1,1,1,1,4,1,1,1,1,1,1,1,1,1,1,1,1,1,1,3,4,1,1,1,1,1,3,1,1,1,2,1,1,4,1,1,1,1,1,1,1,4,1,1,1,1,1,1,1,1,1,1,1,1,1,1,1,2,1,1,1,4,2,2,2,1,2,1,1,4,2,2,2,1,2,1,1,1,2,1,1,1,3,1,1,1,2,1,1,4,1,1,1,1,2,2,1,4,1,1,1,1,1,3,1,1,2,2,1,1,1,1,3,1,1,3,1,4,1,1,1,1,2,1,1,4,1,1,1,1,1,3,1,1,2,1,1,1,1,1,1,1,1,1,1,4,1,1,1,1,1,1,1,4,1,1,1,2,1,1,1,1,1,1,1,1,1,1,3,1,1,1,1,1,1,1,1,1,2,2,1,1,1,1,1,1,1,1,1,1,2,2,1,1,1,2,1,1,2,1,1,4,1,1,1,1,2,1,1,4,1,1,1,2,1,1,1,1,2,1,1,1,1,1,1,1,1,1,1,4,1,1,1,1,2,1,1,4,1,1,1,1,1,1,1,1,2,1,1,1,3,1,1,1,2,1,1,1,1,1,1,1,2,1,1,1,1,1,1,1,1,3,1,1,2,1,1,1,1,1,3,2,1,1,1,4,2,2,2,1,2,1,1,4,2,2,2,2,2,1,1,1,2,1,1,2,1,1,1,2,2,3,1,4,2,2,2,1,2,1,1,4,2,2,2,1,2,1,1,1,2,1,1,2,1,1,1,1,1,1,1,4,1,1,1,2,2,1,1,4,1,1,1,1,1,1,1,2,2,1,1,1,1,2,1,1,1,1,1,4,1,1,1,1,2,1,1,4,1,1,1,1,1,1,1,1,2,1,1,2,1,1,1,1,1,3,4,4,1,1,1,2,2,1,2,4,1,1,1,1,1,1,4,2,2,1,2,1,1,1,1,1,1,1,1,1,1,1,1,1,2,1,1,1,1,1,1,1,1,1,1,1,2,1,1,1,1,1,1,2,1,3,1,4,2,2,2,2,2,2,2,4,2,2,2,1,2,1,1,2,2,2,2,1,1,1,3,1,1,1,1,4,1,1,1,1,2,1,2,4,1,1,1,1,1,1,1,1,2,1,2,1,3,2,1,1,1,1,1,4,1,1,1,1,2,1,1,4,1,1,1,1,1,1,1,1,2,1,1,1,1,1,1,1,1,1,1,1,1,1,1,1,2,1,1,1,1,1,1,2,1,1,1,1,2,1,1,1,1,1,3,1,1,1,4,4,1,1,1,1,1,1,1,4,1,1,1,1,1,1,4,1,1,1,1,1,1,1,1,1,1,3,4,4,1,1,1,1,2,1,2,4,1,1,1,1,1,1,4,1,2,1,2,1,1,2,1,2,1,1,1,4,2,2,2,2,2,1,1,4,2,2,2,1,2,3,1,2,2,1,1,1,3,1,1,1,1,1,4,4,1,1,1,1,1,2,1,4,1,1,1,2,1,1,4,1,1,2,1,2,1,2,1,1,1,1,1,4,1,1,1,2,2,2,2,4,1,1,1,1,1,1,1,2,2,2,2]
letting ub =  193
